proyfinal/src/viki/013/experimentInOfficeAgust.take6.output/53241af6-d18b-4964-872a-1cc8eb88d833.als.dat
{'cnf.clauses': '118081',
 'cnf.totvars': '69608',
 'conflict literals': '69',
 'conflicts': '35',
 'decisions': '4225',
 'memused.mb': '14.44',
 'outcome': 'UNSAT',
 'propagations': '34696',
 'restarts': '1',
 'solver.msecs': 29,
 'task.msecs': 77}
