proyfinal/src/viki/013/experimentInOfficeAgust.take6.output/53241af6-d18b-4964-872a-1cc8eb88d833.als.out
Reading from standard input... Use '--help' for help.
============================[ Problem Statistics ]=============================
|                                                                             |
|  Number of variables:         69608                                         |
|  Number of clauses:          118081                                         |
|  Parse time:                   0.02 s                                       |
|                                                                             |
============================[ Search Statistics ]==============================
| Conflicts |          ORIGINAL         |          LEARNT          | Progress |
|           |    Vars  Clauses Literals |    Limit  Clauses Lit/Cl |          |
===============================================================================
===============================================================================
restarts              : 1
conflicts             : 35             (1171 /sec)
decisions             : 4225           (0.00 % random) (141352 /sec)
propagations          : 34696          (1160790 /sec)
conflict literals     : 69             (1.43 % deleted)
Memory used           : 14.44 MB
CPU time              : 0.02989 s

UNSATISFIABLE
